\ Exact one-hot deterministic governed stochastic program
Minimize
 obj: 160 z_0 + 580 z_1 + 580 z_2 + 160 z_3 + 580 z_4 + 560 z_5 + 1040 z_6 + 580 z_7 + 580 z_8 + 1040 z_9 + 560 z_10 + 580 z_11 + 160 z_12 + 580 z_13 + 580 z_14 + 160 z_15 + 580 z_16 + 560 z_17 + 1040 z_18 + 580 z_19 + 560 z_20 + 550 z_21 + 1020 z_22 + 560 z_23 + 1040 z_24 + 1020 z_25 + 1020 z_26 + 1040 z_27 + 580 z_28 + 560 z_29 + 1040 z_30 + 580 z_31 + 580 z_32 + 1040 z_33 + 560 z_34 + 580 z_35 + 1040 z_36 + 1020 z_37 + 1020 z_38 + 1040 z_39 + 560 z_40 + 1020 z_41 + 550 z_42 + 560 z_43 + 580 z_44 + 1040 z_45 + 560 z_46 + 580 z_47 + 160 z_48 + 580 z_49 + 580 z_50 + 160 z_51 + 580 z_52 + 560 z_53 + 1040 z_54 + 580 z_55 + 580 z_56 + 1040 z_57 + 560 z_58 + 580 z_59 + 160 z_60 + 580 z_61 + 580 z_62 + 160 z_63 + 580 z_64 + 560 z_65 + 1040 z_66 + 580 z_67 + 560 z_68 + 550 z_69 + 1020 z_70 + 560 z_71 + 1040 z_72 + 1020 z_73 + 1020 z_74 + 1040 z_75 + 580 z_76 + 560 z_77 + 1040 z_78 + 580 z_79 + 560 z_80 + 550 z_81 + 1020 z_82 + 560 z_83 + 550 z_84 + 540 z_85 + 1000 z_86 + 550 z_87 + 1020 z_88 + 1000 z_89 + 1000 z_90 + 1020 z_91 + 560 z_92 + 550 z_93 + 1020 z_94 + 560 z_95 + 1040 z_96 + 1020 z_97 + 1020 z_98 + 1040 z_99 + 1020 z_100 + 1000 z_101 + 1000 z_102 + 1020 z_103 + 1020 z_104 + 1000 z_105 + 1000 z_106 + 1020 z_107 + 1040 z_108 + 1020 z_109 + 1020 z_110 + 1040 z_111 + 580 z_112 + 560 z_113 + 1040 z_114 + 580 z_115 + 560 z_116 + 550 z_117 + 1020 z_118 + 560 z_119 + 1040 z_120 + 1020 z_121 + 1020 z_122 + 1040 z_123 + 580 z_124 + 560 z_125 + 1040 z_126 + 580 z_127 + 580 z_128 + 1040 z_129 + 560 z_130 + 580 z_131 + 1040 z_132 + 1020 z_133 + 1020 z_134 + 1040 z_135 + 560 z_136 + 1020 z_137 + 550 z_138 + 560 z_139 + 580 z_140 + 1040 z_141 + 560 z_142 + 580 z_143 + 1040 z_144 + 1020 z_145 + 1020 z_146 + 1040 z_147 + 1020 z_148 + 1000 z_149 + 1000 z_150 + 1020 z_151 + 1020 z_152 + 1000 z_153 + 1000 z_154 + 1020 z_155 + 1040 z_156 + 1020 z_157 + 1020 z_158 + 1040 z_159 + 560 z_160 + 1020 z_161 + 550 z_162 + 560 z_163 + 1020 z_164 + 1000 z_165 + 1000 z_166 + 1020 z_167 + 550 z_168 + 1000 z_169 + 540 z_170 + 550 z_171 + 560 z_172 + 1020 z_173 + 550 z_174 + 560 z_175 + 580 z_176 + 1040 z_177 + 560 z_178 + 580 z_179 + 1040 z_180 + 1020 z_181 + 1020 z_182 + 1040 z_183 + 560 z_184 + 1020 z_185 + 550 z_186 + 560 z_187 + 580 z_188 + 1040 z_189 + 560 z_190 + 580 z_191 + 160 z_192 + 580 z_193 + 580 z_194 + 160 z_195 + 580 z_196 + 560 z_197 + 1040 z_198 + 580 z_199 + 580 z_200 + 1040 z_201 + 560 z_202 + 580 z_203 + 160 z_204 + 580 z_205 + 580 z_206 + 160 z_207 + 580 z_208 + 560 z_209 + 1040 z_210 + 580 z_211 + 560 z_212 + 550 z_213 + 1020 z_214 + 560 z_215 + 1040 z_216 + 1020 z_217 + 1020 z_218 + 1040 z_219 + 580 z_220 + 560 z_221 + 1040 z_222 + 580 z_223 + 580 z_224 + 1040 z_225 + 560 z_226 + 580 z_227 + 1040 z_228 + 1020 z_229 + 1020 z_230 + 1040 z_231 + 560 z_232 + 1020 z_233 + 550 z_234 + 560 z_235 + 580 z_236 + 1040 z_237 + 560 z_238 + 580 z_239 + 160 z_240 + 580 z_241 + 580 z_242 + 160 z_243 + 580 z_244 + 560 z_245 + 1040 z_246 + 580 z_247 + 580 z_248 + 1040 z_249 + 560 z_250 + 580 z_251 + 160 z_252 + 580 z_253 + 580 z_254 + 160 z_255
Subject To
 one_sequence: z_0 + z_1 + z_2 + z_3 + z_4 + z_5 + z_6 + z_7 + z_8 + z_9 + z_10 + z_11 + z_12 + z_13 + z_14 + z_15 + z_16 + z_17 + z_18 + z_19 + z_20 + z_21 + z_22 + z_23 + z_24 + z_25 + z_26 + z_27 + z_28 + z_29 + z_30 + z_31 + z_32 + z_33 + z_34 + z_35 + z_36 + z_37 + z_38 + z_39 + z_40 + z_41 + z_42 + z_43 + z_44 + z_45 + z_46 + z_47 + z_48 + z_49 + z_50 + z_51 + z_52 + z_53 + z_54 + z_55 + z_56 + z_57 + z_58 + z_59 + z_60 + z_61 + z_62 + z_63 + z_64 + z_65 + z_66 + z_67 + z_68 + z_69 + z_70 + z_71 + z_72 + z_73 + z_74 + z_75 + z_76 + z_77 + z_78 + z_79 + z_80 + z_81 + z_82 + z_83 + z_84 + z_85 + z_86 + z_87 + z_88 + z_89 + z_90 + z_91 + z_92 + z_93 + z_94 + z_95 + z_96 + z_97 + z_98 + z_99 + z_100 + z_101 + z_102 + z_103 + z_104 + z_105 + z_106 + z_107 + z_108 + z_109 + z_110 + z_111 + z_112 + z_113 + z_114 + z_115 + z_116 + z_117 + z_118 + z_119 + z_120 + z_121 + z_122 + z_123 + z_124 + z_125 + z_126 + z_127 + z_128 + z_129 + z_130 + z_131 + z_132 + z_133 + z_134 + z_135 + z_136 + z_137 + z_138 + z_139 + z_140 + z_141 + z_142 + z_143 + z_144 + z_145 + z_146 + z_147 + z_148 + z_149 + z_150 + z_151 + z_152 + z_153 + z_154 + z_155 + z_156 + z_157 + z_158 + z_159 + z_160 + z_161 + z_162 + z_163 + z_164 + z_165 + z_166 + z_167 + z_168 + z_169 + z_170 + z_171 + z_172 + z_173 + z_174 + z_175 + z_176 + z_177 + z_178 + z_179 + z_180 + z_181 + z_182 + z_183 + z_184 + z_185 + z_186 + z_187 + z_188 + z_189 + z_190 + z_191 + z_192 + z_193 + z_194 + z_195 + z_196 + z_197 + z_198 + z_199 + z_200 + z_201 + z_202 + z_203 + z_204 + z_205 + z_206 + z_207 + z_208 + z_209 + z_210 + z_211 + z_212 + z_213 + z_214 + z_215 + z_216 + z_217 + z_218 + z_219 + z_220 + z_221 + z_222 + z_223 + z_224 + z_225 + z_226 + z_227 + z_228 + z_229 + z_230 + z_231 + z_232 + z_233 + z_234 + z_235 + z_236 + z_237 + z_238 + z_239 + z_240 + z_241 + z_242 + z_243 + z_244 + z_245 + z_246 + z_247 + z_248 + z_249 + z_250 + z_251 + z_252 + z_253 + z_254 + z_255 = 1
 budget_prob_catastrophic: 0 z_0 + 0.5 z_1 + 0.5 z_2 + 0 z_3 + 0.5 z_4 + 0.5 z_5 + 1 z_6 + 0.5 z_7 + 0.5 z_8 + 1 z_9 + 0.5 z_10 + 0.5 z_11 + 0 z_12 + 0.5 z_13 + 0.5 z_14 + 0 z_15 + 0.5 z_16 + 0.5 z_17 + 1 z_18 + 0.5 z_19 + 0.5 z_20 + 0.5 z_21 + 1 z_22 + 0.5 z_23 + 1 z_24 + 1 z_25 + 1 z_26 + 1 z_27 + 0.5 z_28 + 0.5 z_29 + 1 z_30 + 0.5 z_31 + 0.5 z_32 + 1 z_33 + 0.5 z_34 + 0.5 z_35 + 1 z_36 + 1 z_37 + 1 z_38 + 1 z_39 + 0.5 z_40 + 1 z_41 + 0.5 z_42 + 0.5 z_43 + 0.5 z_44 + 1 z_45 + 0.5 z_46 + 0.5 z_47 + 0 z_48 + 0.5 z_49 + 0.5 z_50 + 0 z_51 + 0.5 z_52 + 0.5 z_53 + 1 z_54 + 0.5 z_55 + 0.5 z_56 + 1 z_57 + 0.5 z_58 + 0.5 z_59 + 0 z_60 + 0.5 z_61 + 0.5 z_62 + 0 z_63 + 0.5 z_64 + 0.5 z_65 + 1 z_66 + 0.5 z_67 + 0.5 z_68 + 0.5 z_69 + 1 z_70 + 0.5 z_71 + 1 z_72 + 1 z_73 + 1 z_74 + 1 z_75 + 0.5 z_76 + 0.5 z_77 + 1 z_78 + 0.5 z_79 + 0.5 z_80 + 0.5 z_81 + 1 z_82 + 0.5 z_83 + 0.5 z_84 + 0.5 z_85 + 1 z_86 + 0.5 z_87 + 1 z_88 + 1 z_89 + 1 z_90 + 1 z_91 + 0.5 z_92 + 0.5 z_93 + 1 z_94 + 0.5 z_95 + 1 z_96 + 1 z_97 + 1 z_98 + 1 z_99 + 1 z_100 + 1 z_101 + 1 z_102 + 1 z_103 + 1 z_104 + 1 z_105 + 1 z_106 + 1 z_107 + 1 z_108 + 1 z_109 + 1 z_110 + 1 z_111 + 0.5 z_112 + 0.5 z_113 + 1 z_114 + 0.5 z_115 + 0.5 z_116 + 0.5 z_117 + 1 z_118 + 0.5 z_119 + 1 z_120 + 1 z_121 + 1 z_122 + 1 z_123 + 0.5 z_124 + 0.5 z_125 + 1 z_126 + 0.5 z_127 + 0.5 z_128 + 1 z_129 + 0.5 z_130 + 0.5 z_131 + 1 z_132 + 1 z_133 + 1 z_134 + 1 z_135 + 0.5 z_136 + 1 z_137 + 0.5 z_138 + 0.5 z_139 + 0.5 z_140 + 1 z_141 + 0.5 z_142 + 0.5 z_143 + 1 z_144 + 1 z_145 + 1 z_146 + 1 z_147 + 1 z_148 + 1 z_149 + 1 z_150 + 1 z_151 + 1 z_152 + 1 z_153 + 1 z_154 + 1 z_155 + 1 z_156 + 1 z_157 + 1 z_158 + 1 z_159 + 0.5 z_160 + 1 z_161 + 0.5 z_162 + 0.5 z_163 + 1 z_164 + 1 z_165 + 1 z_166 + 1 z_167 + 0.5 z_168 + 1 z_169 + 0.5 z_170 + 0.5 z_171 + 0.5 z_172 + 1 z_173 + 0.5 z_174 + 0.5 z_175 + 0.5 z_176 + 1 z_177 + 0.5 z_178 + 0.5 z_179 + 1 z_180 + 1 z_181 + 1 z_182 + 1 z_183 + 0.5 z_184 + 1 z_185 + 0.5 z_186 + 0.5 z_187 + 0.5 z_188 + 1 z_189 + 0.5 z_190 + 0.5 z_191 + 0 z_192 + 0.5 z_193 + 0.5 z_194 + 0 z_195 + 0.5 z_196 + 0.5 z_197 + 1 z_198 + 0.5 z_199 + 0.5 z_200 + 1 z_201 + 0.5 z_202 + 0.5 z_203 + 0 z_204 + 0.5 z_205 + 0.5 z_206 + 0 z_207 + 0.5 z_208 + 0.5 z_209 + 1 z_210 + 0.5 z_211 + 0.5 z_212 + 0.5 z_213 + 1 z_214 + 0.5 z_215 + 1 z_216 + 1 z_217 + 1 z_218 + 1 z_219 + 0.5 z_220 + 0.5 z_221 + 1 z_222 + 0.5 z_223 + 0.5 z_224 + 1 z_225 + 0.5 z_226 + 0.5 z_227 + 1 z_228 + 1 z_229 + 1 z_230 + 1 z_231 + 0.5 z_232 + 1 z_233 + 0.5 z_234 + 0.5 z_235 + 0.5 z_236 + 1 z_237 + 0.5 z_238 + 0.5 z_239 + 0 z_240 + 0.5 z_241 + 0.5 z_242 + 0 z_243 + 0.5 z_244 + 0.5 z_245 + 1 z_246 + 0.5 z_247 + 0.5 z_248 + 1 z_249 + 0.5 z_250 + 0.5 z_251 + 0 z_252 + 0.5 z_253 + 0.5 z_254 + 0 z_255 <= 0.2
 budget_prob_degraded: 1 z_0 + 1 z_1 + 1 z_2 + 1 z_3 + 1 z_4 + 0.5 z_5 + 0 z_6 + 1 z_7 + 1 z_8 + 0 z_9 + 0.5 z_10 + 1 z_11 + 1 z_12 + 1 z_13 + 1 z_14 + 1 z_15 + 1 z_16 + 0.5 z_17 + 0 z_18 + 1 z_19 + 0.5 z_20 + 0.5 z_21 + 0 z_22 + 0.5 z_23 + 0 z_24 + 0 z_25 + 0 z_26 + 0 z_27 + 1 z_28 + 0.5 z_29 + 0 z_30 + 1 z_31 + 1 z_32 + 0 z_33 + 0.5 z_34 + 1 z_35 + 0 z_36 + 0 z_37 + 0 z_38 + 0 z_39 + 0.5 z_40 + 0 z_41 + 0.5 z_42 + 0.5 z_43 + 1 z_44 + 0 z_45 + 0.5 z_46 + 1 z_47 + 1 z_48 + 1 z_49 + 1 z_50 + 1 z_51 + 1 z_52 + 0.5 z_53 + 0 z_54 + 1 z_55 + 1 z_56 + 0 z_57 + 0.5 z_58 + 1 z_59 + 1 z_60 + 1 z_61 + 1 z_62 + 1 z_63 + 1 z_64 + 0.5 z_65 + 0 z_66 + 1 z_67 + 0.5 z_68 + 0.5 z_69 + 0 z_70 + 0.5 z_71 + 0 z_72 + 0 z_73 + 0 z_74 + 0 z_75 + 1 z_76 + 0.5 z_77 + 0 z_78 + 1 z_79 + 0.5 z_80 + 0.5 z_81 + 0 z_82 + 0.5 z_83 + 0.5 z_84 + 0.5 z_85 + 0 z_86 + 0.5 z_87 + 0 z_88 + 0 z_89 + 0 z_90 + 0 z_91 + 0.5 z_92 + 0.5 z_93 + 0 z_94 + 0.5 z_95 + 0 z_96 + 0 z_97 + 0 z_98 + 0 z_99 + 0 z_100 + 0 z_101 + 0 z_102 + 0 z_103 + 0 z_104 + 0 z_105 + 0 z_106 + 0 z_107 + 0 z_108 + 0 z_109 + 0 z_110 + 0 z_111 + 1 z_112 + 0.5 z_113 + 0 z_114 + 1 z_115 + 0.5 z_116 + 0.5 z_117 + 0 z_118 + 0.5 z_119 + 0 z_120 + 0 z_121 + 0 z_122 + 0 z_123 + 1 z_124 + 0.5 z_125 + 0 z_126 + 1 z_127 + 1 z_128 + 0 z_129 + 0.5 z_130 + 1 z_131 + 0 z_132 + 0 z_133 + 0 z_134 + 0 z_135 + 0.5 z_136 + 0 z_137 + 0.5 z_138 + 0.5 z_139 + 1 z_140 + 0 z_141 + 0.5 z_142 + 1 z_143 + 0 z_144 + 0 z_145 + 0 z_146 + 0 z_147 + 0 z_148 + 0 z_149 + 0 z_150 + 0 z_151 + 0 z_152 + 0 z_153 + 0 z_154 + 0 z_155 + 0 z_156 + 0 z_157 + 0 z_158 + 0 z_159 + 0.5 z_160 + 0 z_161 + 0.5 z_162 + 0.5 z_163 + 0 z_164 + 0 z_165 + 0 z_166 + 0 z_167 + 0.5 z_168 + 0 z_169 + 0.5 z_170 + 0.5 z_171 + 0.5 z_172 + 0 z_173 + 0.5 z_174 + 0.5 z_175 + 1 z_176 + 0 z_177 + 0.5 z_178 + 1 z_179 + 0 z_180 + 0 z_181 + 0 z_182 + 0 z_183 + 0.5 z_184 + 0 z_185 + 0.5 z_186 + 0.5 z_187 + 1 z_188 + 0 z_189 + 0.5 z_190 + 1 z_191 + 1 z_192 + 1 z_193 + 1 z_194 + 1 z_195 + 1 z_196 + 0.5 z_197 + 0 z_198 + 1 z_199 + 1 z_200 + 0 z_201 + 0.5 z_202 + 1 z_203 + 1 z_204 + 1 z_205 + 1 z_206 + 1 z_207 + 1 z_208 + 0.5 z_209 + 0 z_210 + 1 z_211 + 0.5 z_212 + 0.5 z_213 + 0 z_214 + 0.5 z_215 + 0 z_216 + 0 z_217 + 0 z_218 + 0 z_219 + 1 z_220 + 0.5 z_221 + 0 z_222 + 1 z_223 + 1 z_224 + 0 z_225 + 0.5 z_226 + 1 z_227 + 0 z_228 + 0 z_229 + 0 z_230 + 0 z_231 + 0.5 z_232 + 0 z_233 + 0.5 z_234 + 0.5 z_235 + 1 z_236 + 0 z_237 + 0.5 z_238 + 1 z_239 + 1 z_240 + 1 z_241 + 1 z_242 + 1 z_243 + 1 z_244 + 0.5 z_245 + 0 z_246 + 1 z_247 + 1 z_248 + 0 z_249 + 0.5 z_250 + 1 z_251 + 1 z_252 + 1 z_253 + 1 z_254 + 1 z_255 <= 0.45
Binary
 z_0
 z_1
 z_2
 z_3
 z_4
 z_5
 z_6
 z_7
 z_8
 z_9
 z_10
 z_11
 z_12
 z_13
 z_14
 z_15
 z_16
 z_17
 z_18
 z_19
 z_20
 z_21
 z_22
 z_23
 z_24
 z_25
 z_26
 z_27
 z_28
 z_29
 z_30
 z_31
 z_32
 z_33
 z_34
 z_35
 z_36
 z_37
 z_38
 z_39
 z_40
 z_41
 z_42
 z_43
 z_44
 z_45
 z_46
 z_47
 z_48
 z_49
 z_50
 z_51
 z_52
 z_53
 z_54
 z_55
 z_56
 z_57
 z_58
 z_59
 z_60
 z_61
 z_62
 z_63
 z_64
 z_65
 z_66
 z_67
 z_68
 z_69
 z_70
 z_71
 z_72
 z_73
 z_74
 z_75
 z_76
 z_77
 z_78
 z_79
 z_80
 z_81
 z_82
 z_83
 z_84
 z_85
 z_86
 z_87
 z_88
 z_89
 z_90
 z_91
 z_92
 z_93
 z_94
 z_95
 z_96
 z_97
 z_98
 z_99
 z_100
 z_101
 z_102
 z_103
 z_104
 z_105
 z_106
 z_107
 z_108
 z_109
 z_110
 z_111
 z_112
 z_113
 z_114
 z_115
 z_116
 z_117
 z_118
 z_119
 z_120
 z_121
 z_122
 z_123
 z_124
 z_125
 z_126
 z_127
 z_128
 z_129
 z_130
 z_131
 z_132
 z_133
 z_134
 z_135
 z_136
 z_137
 z_138
 z_139
 z_140
 z_141
 z_142
 z_143
 z_144
 z_145
 z_146
 z_147
 z_148
 z_149
 z_150
 z_151
 z_152
 z_153
 z_154
 z_155
 z_156
 z_157
 z_158
 z_159
 z_160
 z_161
 z_162
 z_163
 z_164
 z_165
 z_166
 z_167
 z_168
 z_169
 z_170
 z_171
 z_172
 z_173
 z_174
 z_175
 z_176
 z_177
 z_178
 z_179
 z_180
 z_181
 z_182
 z_183
 z_184
 z_185
 z_186
 z_187
 z_188
 z_189
 z_190
 z_191
 z_192
 z_193
 z_194
 z_195
 z_196
 z_197
 z_198
 z_199
 z_200
 z_201
 z_202
 z_203
 z_204
 z_205
 z_206
 z_207
 z_208
 z_209
 z_210
 z_211
 z_212
 z_213
 z_214
 z_215
 z_216
 z_217
 z_218
 z_219
 z_220
 z_221
 z_222
 z_223
 z_224
 z_225
 z_226
 z_227
 z_228
 z_229
 z_230
 z_231
 z_232
 z_233
 z_234
 z_235
 z_236
 z_237
 z_238
 z_239
 z_240
 z_241
 z_242
 z_243
 z_244
 z_245
 z_246
 z_247
 z_248
 z_249
 z_250
 z_251
 z_252
 z_253
 z_254
 z_255
End
